CPXPARAM_Preprocessing_Presolve                  0
CPXPARAM_Threads                                 1
CPXPARAM_MIP_Strategy_File                       2
CPXPARAM_MIP_Interval                            100
CPXPARAM_MIP_Strategy_HeuristicFreq              -1
CPXPARAM_TimeLimit                               9000
CPXPARAM_MIP_Limits_CutsFactor                   0
Clique table members: 27919.
MIP emphasis: balance optimality and feasibility.
MIP search method: traditional branch-and-cut.
Parallel mode: none, using 1 thread.
Root relaxation solution time = 206.02 sec. (107228.84 ticks)

        Nodes                                         Cuts/
   Node  Left     Objective  IInf  Best Integer    Best Bound    ItCnt     Gap         Variable B NodeID Parent  Depth

      0     0        2.0000  4697                      2.0000   189422         
--- USER CUT:relax=2	 bounds=2<->1e+75	 n_rest=1	 Ucuts=1
      0     0        2.0000  4698                     User: 1   189423         
--- USER CUT:relax=2.5	 bounds=2<->1e+75	 n_rest=1	 Ucuts=2
      0     0        2.5000   356                     User: 1   210477         
--- USER CUT:relax=2.5	 bounds=2.5<->1e+75	 n_rest=1	 Ucuts=3
      0     0        3.0000   536                     User: 1   211534         
--- USER CUT:relax=3	 bounds=3<->1e+75	 n_rest=1	 Ucuts=4
      0     0        3.0000   830                     User: 1   212850         
--- USER CUT:relax=3	 bounds=3<->1e+75	 n_rest=1	 Ucuts=5
      0     0        3.0000   541                     User: 1   213951         
--- USER CUT:relax=3	 bounds=3<->1e+75	 n_rest=1	 Ucuts=5
--- USER CUT:relax=3	 bounds=3<->1e+75	 n_rest=1	 Ucuts=5
      0     2        3.0000   150                      3.0000   217448                                 0             0
Elapsed time = 299.19 sec. (162565.95 ticks, tree = 0.01 MB, solutions = 0)
--- USER CUT:relax=3.33333	 bounds=3<->1e+75	 n_rest=2	 Ucuts=6
--- USER CUT:relax=3.66667	 bounds=3<->1e+75	 n_rest=2	 Ucuts=6
--- USER CUT:relax=3.66667	 bounds=3<->1e+75	 n_rest=2	 Ucuts=6
--- USER CUT:relax=3.5	 bounds=3<->1e+75	 n_rest=3	 Ucuts=8
--- USER CUT:relax=3.5	 bounds=3<->1e+75	 n_rest=3	 Ucuts=8
--- USER CUT:relax=3.5	 bounds=3<->1e+75	 n_rest=3	 Ucuts=8
--- USER CUT:relax=4	 bounds=3.5<->1e+75	 n_rest=4	 Ucuts=9
--- USER CUT:relax=4	 bounds=3.5<->1e+75	 n_rest=4	 Ucuts=9
--- USER CUT:relax=4	 bounds=3.5<->1e+75	 n_rest=4	 Ucuts=9
--- USER CUT:relax=4	 bounds=3.5<->1e+75	 n_rest=5	 Ucuts=11
--- USER CUT:relax=4	 bounds=3.5<->1e+75	 n_rest=5	 Ucuts=14
--- USER CUT:relax=4	 bounds=3.5<->1e+75	 n_rest=5	 Ucuts=16
--- USER CUT:relax=4	 bounds=3.5<->1e+75	 n_rest=5	 Ucuts=18
--- USER CUT:relax=4	 bounds=3.5<->1e+75	 n_rest=5	 Ucuts=19
--- USER CUT:relax=4	 bounds=3.5<->1e+75	 n_rest=5	 Ucuts=21
--- USER CUT:relax=4	 bounds=3.5<->1e+75	 n_rest=5	 Ucuts=21
--- USER CUT:relax=4	 bounds=3.5<->1e+75	 n_rest=5	 Ucuts=21
--- USER CUT:relax=4	 bounds=3.66667<->1e+75	 n_rest=6	 Ucuts=22
--- USER CUT:relax=4	 bounds=3.66667<->1e+75	 n_rest=6	 Ucuts=23
--- USER CUT:relax=4	 bounds=3.66667<->1e+75	 n_rest=6	 Ucuts=23
--- USER CUT:relax=4	 bounds=3.66667<->1e+75	 n_rest=6	 Ucuts=23
--- USER CUT:relax=4	 bounds=3.66667<->1e+75	 n_rest=7	 Ucuts=25
--- USER CUT:relax=4	 bounds=3.66667<->1e+75	 n_rest=7	 Ucuts=25
--- USER CUT:relax=4	 bounds=3.66667<->1e+75	 n_rest=7	 Ucuts=25
--- USER CUT:relax=4	 bounds=3.66667<->1e+75	 n_rest=8	 Ucuts=26
--- USER CUT:relax=4	 bounds=3.66667<->1e+75	 n_rest=8	 Ucuts=26
--- USER CUT:relax=4	 bounds=3.66667<->1e+75	 n_rest=8	 Ucuts=26
--- USER CUT:relax=4	 bounds=3.66667<->1e+75	 n_rest=9	 Ucuts=26
--- USER CUT:relax=4	 bounds=3.66667<->1e+75	 n_rest=9	 Ucuts=26
--- USER CUT:relax=4.17328	 bounds=3.66667<->1e+75	 n_rest=10	 Ucuts=26
--- USER CUT:relax=4.17328	 bounds=3.66667<->1e+75	 n_rest=10	 Ucuts=26
--- USER CUT:relax=5	 bounds=3.66667<->1e+75	 n_rest=11	 Ucuts=26
--- USER CUT:relax=5	 bounds=3.66667<->1e+75	 n_rest=11	 Ucuts=26
--- USER CUT:relax=4.5	 bounds=3.66667<->1e+75	 n_rest=12	 Ucuts=26
--- USER CUT:relax=4.5	 bounds=3.66667<->1e+75	 n_rest=12	 Ucuts=26
--- USER CUT:relax=5	 bounds=3.66667<->1e+75	 n_rest=13	 Ucuts=26
--- USER CUT:relax=5	 bounds=3.66667<->1e+75	 n_rest=13	 Ucuts=26
--- USER CUT:relax=5	 bounds=3.66667<->1e+75	 n_rest=14	 Ucuts=26
--- USER CUT:relax=5	 bounds=3.66667<->1e+75	 n_rest=14	 Ucuts=26
--- USER CUT:relax=5	 bounds=3.66667<->1e+75	 n_rest=15	 Ucuts=27
--- USER CUT:relax=5	 bounds=3.66667<->1e+75	 n_rest=15	 Ucuts=27
--- USER CUT:relax=5	 bounds=3.66667<->1e+75	 n_rest=15	 Ucuts=27
--- USER CUT:relax=5	 bounds=3.66667<->1e+75	 n_rest=16	 Ucuts=27
--- USER CUT:relax=5	 bounds=3.66667<->1e+75	 n_rest=16	 Ucuts=27
--- USER CUT:relax=5	 bounds=3.66667<->1e+75	 n_rest=17	 Ucuts=27
--- USER CUT:relax=5	 bounds=3.66667<->1e+75	 n_rest=17	 Ucuts=27
--- USER CUT:relax=5.2	 bounds=3.66667<->1e+75	 n_rest=18	 Ucuts=27
--- USER CUT:relax=5.2	 bounds=3.66667<->1e+75	 n_rest=18	 Ucuts=27
--- USER CUT:relax=5.01333	 bounds=3.66667<->1e+75	 n_rest=19	 Ucuts=27
--- USER CUT:relax=5.01333	 bounds=3.66667<->1e+75	 n_rest=19	 Ucuts=27
--- USER CUT:relax=5.01333	 bounds=3.66667<->1e+75	 n_rest=20	 Ucuts=27
--- USER CUT:relax=5.01333	 bounds=3.66667<->1e+75	 n_rest=20	 Ucuts=27
--- USER CUT:relax=5.01333	 bounds=3.66667<->1e+75	 n_rest=21	 Ucuts=27
--- USER CUT:relax=5.01333	 bounds=3.66667<->1e+75	 n_rest=21	 Ucuts=27
--- USER CUT:relax=6	 bounds=3.66667<->1e+75	 n_rest=21	 Ucuts=27
--- USER CUT:relax=6	 bounds=3.66667<->1e+75	 n_rest=21	 Ucuts=27
--- USER CUT:relax=6	 bounds=3.66667<->1e+75	 n_rest=22	 Ucuts=27
--- USER CUT:relax=6	 bounds=3.66667<->1e+75	 n_rest=22	 Ucuts=27
--- USER CUT:relax=6	 bounds=3.66667<->1e+75	 n_rest=23	 Ucuts=27
--- USER CUT:relax=6	 bounds=3.66667<->1e+75	 n_rest=23	 Ucuts=27
--- USER CUT:relax=6	 bounds=3.66667<->1e+75	 n_rest=24	 Ucuts=27
--- USER CUT:relax=6	 bounds=3.66667<->1e+75	 n_rest=24	 Ucuts=27
*    26    17      integral     0        6.0000        3.6667   311951   38.89%
--- USER CUT:relax=3.83333	 bounds=3.66667<->6	 n_rest=16	 Ucuts=27
--- USER CUT:relax=3.83333	 bounds=3.66667<->6	 n_rest=16	 Ucuts=27
--- USER CUT:relax=4.31818	 bounds=3.66667<->6	 n_rest=16	 Ucuts=28
--- USER CUT:relax=4.31818	 bounds=3.66667<->6	 n_rest=16	 Ucuts=29
--- USER CUT:relax=4.31818	 bounds=3.66667<->6	 n_rest=16	 Ucuts=29
--- USER CUT:relax=4.31818	 bounds=3.66667<->6	 n_rest=16	 Ucuts=29
--- USER CUT:relax=4.31818	 bounds=3.66667<->6	 n_rest=17	 Ucuts=29
--- USER CUT:relax=4.31818	 bounds=3.66667<->6	 n_rest=17	 Ucuts=29
--- USER CUT:relax=4.31818	 bounds=3.66667<->6	 n_rest=18	 Ucuts=29
--- USER CUT:relax=4.31818	 bounds=3.66667<->6	 n_rest=18	 Ucuts=29
--- USER CUT:relax=4.8	 bounds=3.66667<->6	 n_rest=19	 Ucuts=30
--- USER CUT:relax=4.8	 bounds=3.66667<->6	 n_rest=19	 Ucuts=30
--- USER CUT:relax=4.8	 bounds=3.66667<->6	 n_rest=19	 Ucuts=30
--- USER CUT:relax=4.34921	 bounds=3.66667<->6	 n_rest=20	 Ucuts=30
--- USER CUT:relax=4.34921	 bounds=3.66667<->6	 n_rest=20	 Ucuts=30
--- USER CUT:relax=4.8	 bounds=3.66667<->6	 n_rest=21	 Ucuts=30
--- USER CUT:relax=4.8	 bounds=3.66667<->6	 n_rest=21	 Ucuts=30
--- USER CUT:relax=5	 bounds=3.66667<->6	 n_rest=21	 Ucuts=31
--- USER CUT:relax=5	 bounds=3.66667<->6	 n_rest=21	 Ucuts=31
--- USER CUT:relax=5	 bounds=3.66667<->6	 n_rest=21	 Ucuts=31
--- USER CUT:relax=4	 bounds=3.66667<->6	 n_rest=20	 Ucuts=31
--- USER CUT:relax=4	 bounds=3.66667<->6	 n_rest=20	 Ucuts=31
--- USER CUT:relax=4	 bounds=4<->6	 n_rest=20	 Ucuts=31
--- USER CUT:relax=4	 bounds=4<->6	 n_rest=20	 Ucuts=31
--- USER CUT:relax=5	 bounds=4<->6	 n_rest=21	 Ucuts=31
--- USER CUT:relax=5	 bounds=4<->6	 n_rest=21	 Ucuts=31
--- USER CUT:relax=5	 bounds=4<->6	 n_rest=22	 Ucuts=31
--- USER CUT:relax=5	 bounds=4<->6	 n_rest=22	 Ucuts=31
--- USER CUT:relax=5	 bounds=4<->6	 n_rest=23	 Ucuts=31
--- USER CUT:relax=5	 bounds=4<->6	 n_rest=23	 Ucuts=31
--- USER CUT:relax=5	 bounds=4<->6	 n_rest=23	 Ucuts=31
--- USER CUT:relax=5	 bounds=4<->6	 n_rest=23	 Ucuts=31
--- USER CUT:relax=5	 bounds=4<->6	 n_rest=24	 Ucuts=31
--- USER CUT:relax=5	 bounds=4<->6	 n_rest=24	 Ucuts=31
--- USER CUT:relax=5	 bounds=4<->6	 n_rest=24	 Ucuts=31
--- USER CUT:relax=5	 bounds=4<->6	 n_rest=24	 Ucuts=31
--- USER CUT:relax=5	 bounds=4<->6	 n_rest=24	 Ucuts=31
--- USER CUT:relax=5	 bounds=4<->6	 n_rest=24	 Ucuts=31
--- USER CUT:relax=5	 bounds=4<->6	 n_rest=25	 Ucuts=31
--- USER CUT:relax=5	 bounds=4<->6	 n_rest=25	 Ucuts=31
--- USER CUT:relax=4.26389	 bounds=4<->6	 n_rest=24	 Ucuts=32
--- USER CUT:relax=4.26389	 bounds=4<->6	 n_rest=24	 Ucuts=32
--- USER CUT:relax=4.26389	 bounds=4<->6	 n_rest=24	 Ucuts=32
--- USER CUT:relax=5	 bounds=4<->6	 n_rest=24	 Ucuts=32
--- USER CUT:relax=5	 bounds=4<->6	 n_rest=24	 Ucuts=32
--- USER CUT:relax=5	 bounds=4<->6	 n_rest=25	 Ucuts=33
--- USER CUT:relax=5	 bounds=4<->6	 n_rest=25	 Ucuts=33
--- USER CUT:relax=5	 bounds=4<->6	 n_rest=25	 Ucuts=33
--- USER CUT:relax=5	 bounds=4<->6	 n_rest=26	 Ucuts=33
--- USER CUT:relax=5	 bounds=4<->6	 n_rest=26	 Ucuts=33
--- USER CUT:relax=5	 bounds=4<->6	 n_rest=27	 Ucuts=33
--- USER CUT:relax=5	 bounds=4<->6	 n_rest=27	 Ucuts=33
--- USER CUT:relax=5	 bounds=4<->6	 n_rest=27	 Ucuts=33
--- USER CUT:relax=5	 bounds=4<->6	 n_rest=27	 Ucuts=33
--- USER CUT:relax=5	 bounds=4<->6	 n_rest=28	 Ucuts=34
--- USER CUT:relax=5	 bounds=4<->6	 n_rest=28	 Ucuts=34
--- USER CUT:relax=5	 bounds=4<->6	 n_rest=28	 Ucuts=34
--- USER CUT:relax=4.2	 bounds=4<->6	 n_rest=27	 Ucuts=34
--- USER CUT:relax=4.2	 bounds=4<->6	 n_rest=27	 Ucuts=34
--- USER CUT:relax=4.25	 bounds=4<->6	 n_rest=27	 Ucuts=34
--- USER CUT:relax=4.25	 bounds=4<->6	 n_rest=27	 Ucuts=34
--- USER CUT:relax=4.25	 bounds=4<->6	 n_rest=28	 Ucuts=34
--- USER CUT:relax=4.25	 bounds=4<->6	 n_rest=28	 Ucuts=34
--- USER CUT:relax=4.33333	 bounds=4<->6	 n_rest=29	 Ucuts=34
--- USER CUT:relax=4.33333	 bounds=4<->6	 n_rest=29	 Ucuts=34
--- USER CUT:relax=5	 bounds=4<->6	 n_rest=30	 Ucuts=37
--- USER CUT:relax=5	 bounds=4<->6	 n_rest=30	 Ucuts=37
--- USER CUT:relax=5	 bounds=4<->6	 n_rest=30	 Ucuts=37
--- USER CUT:relax=5	 bounds=4<->6	 n_rest=31	 Ucuts=37
--- USER CUT:relax=5	 bounds=4<->6	 n_rest=31	 Ucuts=37
--- USER CUT:relax=5	 bounds=4<->6	 n_rest=32	 Ucuts=37
--- USER CUT:relax=5	 bounds=4<->6	 n_rest=32	 Ucuts=37
--- USER CUT:relax=4.30769	 bounds=4<->6	 n_rest=31	 Ucuts=40
--- USER CUT:relax=4.34148	 bounds=4<->6	 n_rest=31	 Ucuts=40
--- USER CUT:relax=4.34148	 bounds=4<->6	 n_rest=31	 Ucuts=40
--- USER CUT:relax=5	 bounds=4<->6	 n_rest=30	 Ucuts=40
--- USER CUT:relax=5	 bounds=4<->6	 n_rest=30	 Ucuts=40
--- USER CUT:relax=5	 bounds=4<->6	 n_rest=31	 Ucuts=40
--- USER CUT:relax=5	 bounds=4<->6	 n_rest=31	 Ucuts=40
--- USER CUT:relax=4.33333	 bounds=4<->6	 n_rest=30	 Ucuts=40
--- USER CUT:relax=4.33333	 bounds=4<->6	 n_rest=30	 Ucuts=40
--- USER CUT:relax=4.33333	 bounds=4<->6	 n_rest=31	 Ucuts=40
--- USER CUT:relax=4.33333	 bounds=4<->6	 n_rest=31	 Ucuts=40
--- USER CUT:relax=5	 bounds=4<->6	 n_rest=32	 Ucuts=40
--- USER CUT:relax=5	 bounds=4<->6	 n_rest=32	 Ucuts=40
--- USER CUT:relax=4.25	 bounds=4<->6	 n_rest=31	 Ucuts=40
--- USER CUT:relax=4.25	 bounds=4<->6	 n_rest=31	 Ucuts=40
--- USER CUT:relax=4.25	 bounds=4<->6	 n_rest=32	 Ucuts=40
--- USER CUT:relax=4.25	 bounds=4<->6	 n_rest=32	 Ucuts=40
--- USER CUT:relax=4.25	 bounds=4<->6	 n_rest=33	 Ucuts=40
--- USER CUT:relax=4.25	 bounds=4<->6	 n_rest=33	 Ucuts=40
--- USER CUT:relax=4.25	 bounds=4<->6	 n_rest=34	 Ucuts=40
--- USER CUT:relax=4.25	 bounds=4<->6	 n_rest=34	 Ucuts=40
--- USER CUT:relax=4.33333	 bounds=4<->6	 n_rest=35	 Ucuts=40
--- USER CUT:relax=4.33333	 bounds=4<->6	 n_rest=35	 Ucuts=40
--- USER CUT:relax=4.33333	 bounds=4<->6	 n_rest=36	 Ucuts=40
--- USER CUT:relax=4.33333	 bounds=4<->6	 n_rest=36	 Ucuts=40
--- USER CUT:relax=4.33333	 bounds=4<->6	 n_rest=37	 Ucuts=40
--- USER CUT:relax=4.33333	 bounds=4<->6	 n_rest=37	 Ucuts=40
--- USER CUT:relax=4.33333	 bounds=4<->6	 n_rest=38	 Ucuts=40
--- USER CUT:relax=4.33333	 bounds=4<->6	 n_rest=38	 Ucuts=40
--- USER CUT:relax=5	 bounds=4<->6	 n_rest=39	 Ucuts=40
--- USER CUT:relax=5	 bounds=4<->6	 n_rest=39	 Ucuts=40
--- USER CUT:relax=5	 bounds=4<->6	 n_rest=40	 Ucuts=40
--- USER CUT:relax=5	 bounds=4<->6	 n_rest=40	 Ucuts=40
--- USER CUT:relax=5	 bounds=4<->6	 n_rest=40	 Ucuts=42
--- USER CUT:relax=5	 bounds=4<->6	 n_rest=40	 Ucuts=42
--- USER CUT:relax=5	 bounds=4<->6	 n_rest=40	 Ucuts=42
--- USER CUT:relax=5	 bounds=4<->6	 n_rest=41	 Ucuts=42
--- USER CUT:relax=5	 bounds=4<->6	 n_rest=41	 Ucuts=42
    100    42        5.0000    91        6.0000        4.0000   416665   33.33%           x6243 U    100     99     14
--- USER CUT:relax=5	 bounds=4<->6	 n_rest=41	 Ucuts=42
--- USER CUT:relax=5	 bounds=4<->6	 n_rest=41	 Ucuts=42
--- USER CUT:relax=4.25	 bounds=4<->6	 n_rest=40	 Ucuts=42
--- USER CUT:relax=4.25	 bounds=4<->6	 n_rest=40	 Ucuts=42
--- USER CUT:relax=4.33333	 bounds=4<->6	 n_rest=41	 Ucuts=43
--- USER CUT:relax=4.33333	 bounds=4<->6	 n_rest=41	 Ucuts=44
--- USER CUT:relax=4.33333	 bounds=4<->6	 n_rest=41	 Ucuts=44
--- USER CUT:relax=4.33333	 bounds=4<->6	 n_rest=41	 Ucuts=44
--- USER CUT:relax=4.33333	 bounds=4<->6	 n_rest=42	 Ucuts=44
--- USER CUT:relax=4.33333	 bounds=4<->6	 n_rest=42	 Ucuts=44
--- USER CUT:relax=4.5	 bounds=4<->6	 n_rest=43	 Ucuts=44
--- USER CUT:relax=4.5	 bounds=4<->6	 n_rest=43	 Ucuts=44
--- USER CUT:relax=4.5	 bounds=4<->6	 n_rest=44	 Ucuts=44
--- USER CUT:relax=4.5	 bounds=4<->6	 n_rest=44	 Ucuts=44
--- USER CUT:relax=4.5	 bounds=4<->6	 n_rest=45	 Ucuts=44
--- USER CUT:relax=4.5	 bounds=4<->6	 n_rest=45	 Ucuts=44
--- USER CUT:relax=4.5	 bounds=4<->6	 n_rest=45	 Ucuts=44
--- USER CUT:relax=4.5	 bounds=4<->6	 n_rest=45	 Ucuts=44
--- USER CUT:relax=5	 bounds=4<->6	 n_rest=46	 Ucuts=45
--- USER CUT:relax=5	 bounds=4<->6	 n_rest=46	 Ucuts=46
--- USER CUT:relax=5	 bounds=4<->6	 n_rest=46	 Ucuts=47
--- USER CUT:relax=5	 bounds=4<->6	 n_rest=46	 Ucuts=47
--- USER CUT:relax=5	 bounds=4<->6	 n_rest=46	 Ucuts=47
--- USER CUT:relax=5	 bounds=4<->6	 n_rest=47	 Ucuts=47
--- USER CUT:relax=5	 bounds=4<->6	 n_rest=47	 Ucuts=47
--- USER CUT:relax=5	 bounds=4<->6	 n_rest=47	 Ucuts=48
--- USER CUT:relax=5	 bounds=4<->6	 n_rest=47	 Ucuts=48
--- USER CUT:relax=5	 bounds=4<->6	 n_rest=47	 Ucuts=48
--- USER CUT:relax=5	 bounds=4<->6	 n_rest=48	 Ucuts=48
--- USER CUT:relax=5	 bounds=4<->6	 n_rest=48	 Ucuts=48
--- USER CUT:relax=5	 bounds=4.25<->6	 n_rest=46	 Ucuts=48
--- USER CUT:relax=5	 bounds=4.25<->6	 n_rest=46	 Ucuts=48
--- USER CUT:relax=5	 bounds=4.25<->6	 n_rest=47	 Ucuts=48
--- USER CUT:relax=5	 bounds=4.25<->6	 n_rest=47	 Ucuts=48
--- USER CUT:relax=5	 bounds=4.25<->6	 n_rest=48	 Ucuts=48
--- USER CUT:relax=5	 bounds=4.25<->6	 n_rest=48	 Ucuts=48
--- USER CUT:relax=5	 bounds=4.25<->6	 n_rest=49	 Ucuts=48
--- USER CUT:relax=5	 bounds=4.25<->6	 n_rest=49	 Ucuts=48
--- USER CUT:relax=5	 bounds=4.25<->6	 n_rest=50	 Ucuts=48
--- USER CUT:relax=5	 bounds=4.25<->6	 n_rest=50	 Ucuts=48
--- USER CUT:relax=5	 bounds=4.25<->6	 n_rest=51	 Ucuts=48
--- USER CUT:relax=5	 bounds=4.25<->6	 n_rest=51	 Ucuts=48
--- USER CUT:relax=5	 bounds=4.25<->6	 n_rest=52	 Ucuts=48
--- USER CUT:relax=5	 bounds=4.25<->6	 n_rest=52	 Ucuts=48
--- USER CUT:relax=5	 bounds=4.25<->6	 n_rest=52	 Ucuts=48
--- USER CUT:relax=5	 bounds=4.25<->6	 n_rest=52	 Ucuts=48
--- USER CUT:relax=5	 bounds=4.25<->6	 n_rest=52	 Ucuts=48
--- USER CUT:relax=5	 bounds=4.25<->6	 n_rest=52	 Ucuts=48
--- USER CUT:relax=5	 bounds=4.25<->6	 n_rest=53	 Ucuts=48
--- USER CUT:relax=5	 bounds=4.25<->6	 n_rest=53	 Ucuts=48
--- USER CUT:relax=5	 bounds=4.25<->6	 n_rest=53	 Ucuts=49
--- USER CUT:relax=5	 bounds=4.25<->6	 n_rest=53	 Ucuts=49
--- USER CUT:relax=5	 bounds=4.25<->6	 n_rest=53	 Ucuts=49
--- USER CUT:relax=5	 bounds=4.25<->6	 n_rest=52	 Ucuts=49
--- USER CUT:relax=5	 bounds=4.25<->6	 n_rest=52	 Ucuts=49
--- USER CUT:relax=5	 bounds=4.25<->6	 n_rest=53	 Ucuts=49
--- USER CUT:relax=5	 bounds=4.25<->6	 n_rest=53	 Ucuts=49
--- USER CUT:relax=5	 bounds=4.25<->6	 n_rest=54	 Ucuts=49
--- USER CUT:relax=5	 bounds=4.25<->6	 n_rest=54	 Ucuts=49
--- USER CUT:relax=5	 bounds=4.25<->6	 n_rest=54	 Ucuts=49
--- USER CUT:relax=5	 bounds=4.25<->6	 n_rest=54	 Ucuts=49
--- USER CUT:relax=5	 bounds=4.25<->6	 n_rest=54	 Ucuts=49
--- USER CUT:relax=5	 bounds=4.25<->6	 n_rest=54	 Ucuts=49
--- USER CUT:relax=5	 bounds=4.25<->6	 n_rest=54	 Ucuts=49
--- USER CUT:relax=5	 bounds=4.25<->6	 n_rest=54	 Ucuts=49
--- USER CUT:relax=5	 bounds=4.25<->6	 n_rest=53	 Ucuts=49
--- USER CUT:relax=5	 bounds=4.25<->6	 n_rest=53	 Ucuts=49
--- USER CUT:relax=5	 bounds=4.25<->6	 n_rest=54	 Ucuts=50
--- USER CUT:relax=5	 bounds=4.25<->6	 n_rest=54	 Ucuts=50
--- USER CUT:relax=5	 bounds=4.25<->6	 n_rest=54	 Ucuts=50
--- USER CUT:relax=5	 bounds=4.25<->6	 n_rest=55	 Ucuts=50
--- USER CUT:relax=5	 bounds=4.25<->6	 n_rest=55	 Ucuts=50
--- USER CUT:relax=5	 bounds=4.25<->6	 n_rest=56	 Ucuts=50
--- USER CUT:relax=5	 bounds=4.25<->6	 n_rest=56	 Ucuts=50
--- USER CUT:relax=5	 bounds=4.25<->6	 n_rest=57	 Ucuts=52
--- USER CUT:relax=5	 bounds=4.25<->6	 n_rest=57	 Ucuts=52
--- USER CUT:relax=5	 bounds=4.25<->6	 n_rest=57	 Ucuts=52
--- USER CUT:relax=5	 bounds=4.25<->6	 n_rest=58	 Ucuts=52
--- USER CUT:relax=5	 bounds=4.25<->6	 n_rest=58	 Ucuts=52
--- USER CUT:relax=5	 bounds=4.25<->6	 n_rest=59	 Ucuts=52
--- USER CUT:relax=5	 bounds=4.25<->6	 n_rest=59	 Ucuts=52
--- USER CUT:relax=5	 bounds=4.25<->6	 n_rest=60	 Ucuts=53
--- USER CUT:relax=5	 bounds=4.25<->6	 n_rest=60	 Ucuts=53
--- USER CUT:relax=5	 bounds=4.25<->6	 n_rest=60	 Ucuts=53
--- USER CUT:relax=5	 bounds=4.25<->6	 n_rest=61	 Ucuts=53
--- USER CUT:relax=5	 bounds=4.25<->6	 n_rest=61	 Ucuts=53
--- USER CUT:relax=5	 bounds=4.25<->6	 n_rest=62	 Ucuts=53
--- USER CUT:relax=5	 bounds=4.25<->6	 n_rest=62	 Ucuts=53
--- USER CUT:relax=5	 bounds=4.25<->6	 n_rest=61	 Ucuts=53
--- USER CUT:relax=5	 bounds=4.25<->6	 n_rest=61	 Ucuts=53
--- USER CUT:relax=5	 bounds=4.25<->6	 n_rest=62	 Ucuts=53
--- USER CUT:relax=5	 bounds=4.25<->6	 n_rest=62	 Ucuts=53
--- USER CUT:relax=5	 bounds=4.25<->6	 n_rest=63	 Ucuts=53
--- USER CUT:relax=5	 bounds=4.25<->6	 n_rest=63	 Ucuts=53
--- USER CUT:relax=5	 bounds=4.25<->6	 n_rest=64	 Ucuts=53
--- USER CUT:relax=5	 bounds=4.25<->6	 n_rest=64	 Ucuts=53
--- USER CUT:relax=5	 bounds=4.25<->6	 n_rest=65	 Ucuts=53
--- USER CUT:relax=5	 bounds=4.25<->6	 n_rest=65	 Ucuts=53
--- USER CUT:relax=5	 bounds=4.25<->6	 n_rest=66	 Ucuts=53
--- USER CUT:relax=5	 bounds=4.25<->6	 n_rest=66	 Ucuts=53
--- USER CUT:relax=5	 bounds=4.25<->6	 n_rest=67	 Ucuts=53
--- USER CUT:relax=5	 bounds=4.25<->6	 n_rest=67	 Ucuts=53
--- USER CUT:relax=5	 bounds=4.25<->6	 n_rest=68	 Ucuts=53
--- USER CUT:relax=5	 bounds=4.25<->6	 n_rest=68	 Ucuts=53
--- USER CUT:relax=5	 bounds=4.25<->6	 n_rest=69	 Ucuts=53
--- USER CUT:relax=5	 bounds=4.25<->6	 n_rest=69	 Ucuts=53
--- USER CUT:relax=5	 bounds=4.25<->6	 n_rest=70	 Ucuts=53
--- USER CUT:relax=5	 bounds=4.25<->6	 n_rest=70	 Ucuts=53
--- USER CUT:relax=5	 bounds=4.25<->6	 n_rest=70	 Ucuts=53
--- USER CUT:relax=5	 bounds=4.25<->6	 n_rest=70	 Ucuts=53
--- USER CUT:relax=5	 bounds=4.25<->6	 n_rest=71	 Ucuts=53
--- USER CUT:relax=5	 bounds=4.25<->6	 n_rest=71	 Ucuts=53
--- USER CUT:relax=5	 bounds=4.25<->6	 n_rest=71	 Ucuts=53
--- USER CUT:relax=5	 bounds=4.25<->6	 n_rest=71	 Ucuts=53
--- USER CUT:relax=5	 bounds=4.25<->6	 n_rest=72	 Ucuts=53
--- USER CUT:relax=5	 bounds=4.25<->6	 n_rest=72	 Ucuts=53
--- USER CUT:relax=5	 bounds=4.28<->6	 n_rest=70	 Ucuts=53
--- USER CUT:relax=5	 bounds=4.28<->6	 n_rest=70	 Ucuts=53
--- USER CUT:relax=5	 bounds=4.31818<->6	 n_rest=71	 Ucuts=53
--- USER CUT:relax=5	 bounds=4.31818<->6	 n_rest=71	 Ucuts=53
--- USER CUT:relax=5	 bounds=4.31818<->6	 n_rest=71	 Ucuts=53
--- USER CUT:relax=5	 bounds=4.31818<->6	 n_rest=71	 Ucuts=53
--- USER CUT:relax=5	 bounds=4.31818<->6	 n_rest=71	 Ucuts=54
--- USER CUT:relax=5	 bounds=4.31818<->6	 n_rest=71	 Ucuts=54
--- USER CUT:relax=5	 bounds=4.31818<->6	 n_rest=71	 Ucuts=54
--- USER CUT:relax=5	 bounds=4.33333<->6	 n_rest=69	 Ucuts=54
--- USER CUT:relax=5	 bounds=4.33333<->6	 n_rest=69	 Ucuts=54
--- USER CUT:relax=5	 bounds=4.33333<->6	 n_rest=70	 Ucuts=54
--- USER CUT:relax=5	 bounds=4.33333<->6	 n_rest=70	 Ucuts=54
--- USER CUT:relax=5	 bounds=4.33333<->6	 n_rest=71	 Ucuts=54
--- USER CUT:relax=5	 bounds=4.33333<->6	 n_rest=71	 Ucuts=54
--- USER CUT:relax=5	 bounds=4.33333<->6	 n_rest=72	 Ucuts=54
--- USER CUT:relax=5	 bounds=4.33333<->6	 n_rest=72	 Ucuts=54
--- USER CUT:relax=5	 bounds=4.33333<->6	 n_rest=73	 Ucuts=54
--- USER CUT:relax=5	 bounds=4.33333<->6	 n_rest=73	 Ucuts=54
--- USER CUT:relax=5	 bounds=4.33333<->6	 n_rest=73	 Ucuts=55
--- USER CUT:relax=5	 bounds=4.33333<->6	 n_rest=72	 Ucuts=56
--- USER CUT:relax=5	 bounds=4.33333<->6	 n_rest=72	 Ucuts=57
--- USER CUT:relax=5	 bounds=4.33333<->6	 n_rest=72	 Ucuts=57
--- USER CUT:relax=5	 bounds=4.33333<->6	 n_rest=72	 Ucuts=57
--- USER CUT:relax=5	 bounds=4.33333<->6	 n_rest=73	 Ucuts=57
--- USER CUT:relax=5	 bounds=4.33333<->6	 n_rest=73	 Ucuts=57
--- USER CUT:relax=5	 bounds=4.33333<->6	 n_rest=74	 Ucuts=57
--- USER CUT:relax=5	 bounds=4.33333<->6	 n_rest=74	 Ucuts=57
--- USER CUT:relax=5	 bounds=4.33333<->6	 n_rest=75	 Ucuts=57
--- USER CUT:relax=5	 bounds=4.33333<->6	 n_rest=75	 Ucuts=57
--- USER CUT:relax=5	 bounds=4.33333<->6	 n_rest=74	 Ucuts=57
--- USER CUT:relax=5	 bounds=4.33333<->6	 n_rest=74	 Ucuts=57
--- USER CUT:relax=5	 bounds=4.33333<->6	 n_rest=75	 Ucuts=57
--- USER CUT:relax=5	 bounds=4.33333<->6	 n_rest=75	 Ucuts=57
    200    76        5.0000    52        6.0000        4.3333   445195   27.78%           x5845 D    200    199      7
--- USER CUT:relax=5	 bounds=4.33333<->6	 n_rest=76	 Ucuts=57
--- USER CUT:relax=5	 bounds=4.33333<->6	 n_rest=76	 Ucuts=57
--- USER CUT:relax=5	 bounds=4.33333<->6	 n_rest=77	 Ucuts=57
--- USER CUT:relax=5	 bounds=4.33333<->6	 n_rest=77	 Ucuts=57
--- USER CUT:relax=5	 bounds=4.33333<->6	 n_rest=78	 Ucuts=57
--- USER CUT:relax=5	 bounds=4.33333<->6	 n_rest=78	 Ucuts=57
--- USER CUT:relax=5	 bounds=4.33333<->6	 n_rest=78	 Ucuts=57
--- USER CUT:relax=5	 bounds=4.33333<->6	 n_rest=78	 Ucuts=57
--- USER CUT:relax=5	 bounds=4.33333<->6	 n_rest=78	 Ucuts=57
--- USER CUT:relax=5	 bounds=4.33333<->6	 n_rest=78	 Ucuts=57
--- USER CUT:relax=5	 bounds=4.33333<->6	 n_rest=77	 Ucuts=58
--- USER CUT:relax=5	 bounds=4.33333<->6	 n_rest=77	 Ucuts=58
--- USER CUT:relax=5	 bounds=4.33333<->6	 n_rest=77	 Ucuts=58
--- USER CUT:relax=5	 bounds=4.33333<->6	 n_rest=77	 Ucuts=58
--- USER CUT:relax=5	 bounds=4.33333<->6	 n_rest=77	 Ucuts=58
--- USER CUT:relax=5	 bounds=4.33333<->6	 n_rest=76	 Ucuts=59
--- USER CUT:relax=5	 bounds=4.33333<->6	 n_rest=76	 Ucuts=59
--- USER CUT:relax=5	 bounds=4.33333<->6	 n_rest=76	 Ucuts=59
--- USER CUT:relax=5	 bounds=4.33333<->6	 n_rest=77	 Ucuts=60
--- USER CUT:relax=5	 bounds=4.33333<->6	 n_rest=77	 Ucuts=60
--- USER CUT:relax=5	 bounds=4.33333<->6	 n_rest=77	 Ucuts=60
--- USER CUT:relax=5	 bounds=4.33333<->6	 n_rest=78	 Ucuts=60
--- USER CUT:relax=5	 bounds=4.33333<->6	 n_rest=78	 Ucuts=60
--- USER CUT:relax=5	 bounds=4.33333<->6	 n_rest=79	 Ucuts=60
--- USER CUT:relax=5	 bounds=4.33333<->6	 n_rest=79	 Ucuts=60
--- USER CUT:relax=5	 bounds=4.33333<->6	 n_rest=79	 Ucuts=60
--- USER CUT:relax=5	 bounds=4.33333<->6	 n_rest=79	 Ucuts=60
--- USER CUT:relax=5	 bounds=4.33333<->6	 n_rest=79	 Ucuts=60
--- USER CUT:relax=5	 bounds=4.33333<->6	 n_rest=79	 Ucuts=60
--- USER CUT:relax=5	 bounds=4.33333<->6	 n_rest=80	 Ucuts=60
--- USER CUT:relax=5	 bounds=4.33333<->6	 n_rest=80	 Ucuts=60
--- USER CUT:relax=5	 bounds=4.33333<->6	 n_rest=81	 Ucuts=60
--- USER CUT:relax=5	 bounds=4.33333<->6	 n_rest=81	 Ucuts=60
--- USER CUT:relax=5	 bounds=4.33333<->6	 n_rest=80	 Ucuts=60
--- USER CUT:relax=5	 bounds=4.33333<->6	 n_rest=80	 Ucuts=60
--- USER CUT:relax=5	 bounds=4.33333<->6	 n_rest=81	 Ucuts=60
--- USER CUT:relax=5	 bounds=4.33333<->6	 n_rest=81	 Ucuts=60
--- USER CUT:relax=5	 bounds=4.33333<->6	 n_rest=80	 Ucuts=60
--- USER CUT:relax=5	 bounds=4.33333<->6	 n_rest=80	 Ucuts=60
--- USER CUT:relax=5	 bounds=4.33333<->6	 n_rest=81	 Ucuts=60
--- USER CUT:relax=5	 bounds=4.33333<->6	 n_rest=81	 Ucuts=60
--- USER CUT:relax=5	 bounds=4.33333<->6	 n_rest=82	 Ucuts=60
--- USER CUT:relax=5	 bounds=4.33333<->6	 n_rest=82	 Ucuts=60
--- USER CUT:relax=5	 bounds=4.33333<->6	 n_rest=83	 Ucuts=60
--- USER CUT:relax=5	 bounds=4.33333<->6	 n_rest=83	 Ucuts=60
--- USER CUT:relax=5	 bounds=4.33333<->6	 n_rest=84	 Ucuts=60
--- USER CUT:relax=5	 bounds=4.33333<->6	 n_rest=84	 Ucuts=60
--- USER CUT:relax=5	 bounds=4.33333<->6	 n_rest=85	 Ucuts=60
--- USER CUT:relax=5	 bounds=4.33333<->6	 n_rest=85	 Ucuts=60
--- USER CUT:relax=5	 bounds=4.33333<->6	 n_rest=85	 Ucuts=60
--- USER CUT:relax=5	 bounds=4.33333<->6	 n_rest=85	 Ucuts=60
--- USER CUT:relax=5	 bounds=4.33333<->6	 n_rest=85	 Ucuts=60
--- USER CUT:relax=5	 bounds=4.33333<->6	 n_rest=85	 Ucuts=60
--- USER CUT:relax=5	 bounds=4.4<->6	 n_rest=83	 Ucuts=60
--- USER CUT:relax=5	 bounds=4.4<->6	 n_rest=83	 Ucuts=60
--- USER CUT:relax=5	 bounds=4.41509<->6	 n_rest=84	 Ucuts=60
--- USER CUT:relax=5	 bounds=4.41509<->6	 n_rest=84	 Ucuts=60
--- USER CUT:relax=5	 bounds=4.41509<->6	 n_rest=85	 Ucuts=60
--- USER CUT:relax=5	 bounds=4.41509<->6	 n_rest=85	 Ucuts=60
--- USER CUT:relax=5	 bounds=4.41509<->6	 n_rest=86	 Ucuts=60
--- USER CUT:relax=5	 bounds=4.41509<->6	 n_rest=86	 Ucuts=60
--- USER CUT:relax=5	 bounds=4.41509<->6	 n_rest=87	 Ucuts=60
--- USER CUT:relax=5	 bounds=4.41509<->6	 n_rest=87	 Ucuts=60
--- USER CUT:relax=5	 bounds=4.41509<->6	 n_rest=87	 Ucuts=60
--- USER CUT:relax=5	 bounds=4.41509<->6	 n_rest=87	 Ucuts=60
--- USER CUT:relax=5	 bounds=4.5<->6	 n_rest=85	 Ucuts=60
--- USER CUT:relax=5	 bounds=4.5<->6	 n_rest=85	 Ucuts=60
--- USER CUT:relax=5	 bounds=4.5<->6	 n_rest=84	 Ucuts=60
--- USER CUT:relax=5	 bounds=4.5<->6	 n_rest=84	 Ucuts=60
--- USER CUT:relax=5	 bounds=4.5<->6	 n_rest=85	 Ucuts=60
--- USER CUT:relax=5	 bounds=4.5<->6	 n_rest=85	 Ucuts=60
--- USER CUT:relax=5	 bounds=4.5<->6	 n_rest=84	 Ucuts=60
--- USER CUT:relax=5	 bounds=4.5<->6	 n_rest=84	 Ucuts=60
--- USER CUT:relax=5	 bounds=4.55556<->6	 n_rest=81	 Ucuts=60
--- USER CUT:relax=5	 bounds=4.55556<->6	 n_rest=81	 Ucuts=60
--- USER CUT:relax=5	 bounds=5<->6	 n_rest=78	 Ucuts=60
--- USER CUT:relax=5	 bounds=5<->6	 n_rest=78	 Ucuts=60
--- USER CUT:relax=5	 bounds=5<->6	 n_rest=79	 Ucuts=60
--- USER CUT:relax=5	 bounds=5<->6	 n_rest=79	 Ucuts=60
--- USER CUT:relax=5	 bounds=5<->6	 n_rest=80	 Ucuts=60
--- USER CUT:relax=5	 bounds=5<->6	 n_rest=80	 Ucuts=60
--- USER CUT:relax=5	 bounds=5<->6	 n_rest=81	 Ucuts=60
--- USER CUT:relax=5	 bounds=5<->6	 n_rest=81	 Ucuts=60
--- USER CUT:relax=5	 bounds=5<->6	 n_rest=78	 Ucuts=60
--- USER CUT:relax=5	 bounds=5<->6	 n_rest=78	 Ucuts=60
--- USER CUT:relax=5	 bounds=5<->6	 n_rest=79	 Ucuts=60
--- USER CUT:relax=5	 bounds=5<->6	 n_rest=79	 Ucuts=60
--- USER CUT:relax=5	 bounds=5<->6	 n_rest=78	 Ucuts=60
--- USER CUT:relax=5	 bounds=5<->6	 n_rest=78	 Ucuts=60
--- USER CUT:relax=5	 bounds=5<->6	 n_rest=75	 Ucuts=60
--- USER CUT:relax=5	 bounds=5<->6	 n_rest=75	 Ucuts=60
--- USER CUT:relax=5	 bounds=5<->6	 n_rest=76	 Ucuts=60
--- USER CUT:relax=5	 bounds=5<->6	 n_rest=76	 Ucuts=60
--- USER CUT:relax=5	 bounds=5<->6	 n_rest=70	 Ucuts=60
--- USER CUT:relax=5	 bounds=5<->6	 n_rest=70	 Ucuts=60
--- USER CUT:relax=5	 bounds=5<->6	 n_rest=71	 Ucuts=60
--- USER CUT:relax=5	 bounds=5<->6	 n_rest=71	 Ucuts=60
--- USER CUT:relax=5	 bounds=5<->6	 n_rest=72	 Ucuts=60
--- USER CUT:relax=5	 bounds=5<->6	 n_rest=72	 Ucuts=60
    300    68    infeasible              6.0000        5.0000   483645   16.67%           x5761 U    300    130     16
--- USER CUT:relax=5	 bounds=5<->6	 n_rest=67	 Ucuts=60
--- USER CUT:relax=5	 bounds=5<->6	 n_rest=67	 Ucuts=60
--- USER CUT:relax=5	 bounds=5<->6	 n_rest=50	 Ucuts=60
--- USER CUT:relax=5	 bounds=5<->6	 n_rest=50	 Ucuts=60
--- USER CUT:relax=5	 bounds=5<->6	 n_rest=41	 Ucuts=60
--- USER CUT:relax=5	 bounds=5<->6	 n_rest=41	 Ucuts=60
--- USER CUT:relax=5	 bounds=5<->6	 n_rest=42	 Ucuts=60
--- USER CUT:relax=5	 bounds=5<->6	 n_rest=42	 Ucuts=60
--- USER CUT:relax=5	 bounds=5<->6	 n_rest=29	 Ucuts=60
--- USER CUT:relax=5	 bounds=5<->6	 n_rest=29	 Ucuts=60
--- USER CUT:relax=5	 bounds=5<->6	 n_rest=18	 Ucuts=60
--- USER CUT:relax=5	 bounds=5<->6	 n_rest=18	 Ucuts=60
--- USER CUT:relax=5	 bounds=5<->6	 n_rest=19	 Ucuts=60
--- USER CUT:relax=5	 bounds=5<->6	 n_rest=19	 Ucuts=60
--- USER CUT:relax=5	 bounds=5<->6	 n_rest=13	 Ucuts=61
--- USER CUT:relax=5	 bounds=5<->6	 n_rest=13	 Ucuts=61
--- USER CUT:relax=5	 bounds=5<->6	 n_rest=13	 Ucuts=61
--- USER CUT:relax=5	 bounds=5<->6	 n_rest=14	 Ucuts=61
--- USER CUT:relax=5	 bounds=5<->6	 n_rest=14	 Ucuts=61
--- USER CUT:relax=5	 bounds=5<->6	 n_rest=14	 Ucuts=61
--- USER CUT:relax=5	 bounds=5<->6	 n_rest=14	 Ucuts=61
--- USER CUT:relax=5	 bounds=5<->6	 n_rest=15	 Ucuts=61
--- USER CUT:relax=5	 bounds=5<->6	 n_rest=15	 Ucuts=61
--- USER CUT:relax=5	 bounds=5<->6	 n_rest=14	 Ucuts=61
--- USER CUT:relax=5	 bounds=5<->6	 n_rest=14	 Ucuts=61
--- USER CUT:relax=5	 bounds=5<->6	 n_rest=7	 Ucuts=61
--- USER CUT:relax=5	 bounds=5<->6	 n_rest=7	 Ucuts=61

User cuts applied:  61

Root node processing (before b&c):
  Real time             =  296.02 sec. (160779.65 ticks)
Sequential b&c:
  Real time             =  230.18 sec. (306694.91 ticks)
                          ------------
Total (root+branch&cut) =  526.20 sec. (467474.56 ticks)
Solution status: Optimal
Optimal value: 6
